10J3M/DAT/10J3MULA-4.dat
10 3
10.8879 118.5464
7.6574 58.6358
14.7291 216.9464
15.4199 237.7733
2.4674 6.0881
13.4775 181.643
11.3124 127.9704
22.2431 494.7555
37.6009 1413.8277
4.61 21.2521
959.1462