10J3M/SOL/10J3MULA-4.sol
solution status: optimal solution found
objective value:                     64.2360333333333
x#1#2                               0.243317620135015 	(obj:0)
x#1#3                               0.756682379864985 	(obj:0)
x#2#2                                               1 	(obj:0)
x#3#3                                               1 	(obj:0)
x#4#1                               0.808241049663054 	(obj:0)
x#4#2                              0.0126196754130263 	(obj:0)
x#4#3                               0.179139274923919 	(obj:0)
x#5#1                                               1 	(obj:0)
x#6#1                                               1 	(obj:0)
x#7#1                                               1 	(obj:0)
x#8#2                                               1 	(obj:0)
x#9#1                               0.678582602989428 	(obj:0)
x#9#3                               0.321417397010574 	(obj:0)
x#10#3                                              1 	(obj:0)
z                                    64.2360333333333 	(obj:1)
